NAME: 2-Methoxy-5-methylaniline
SCANNUMBER: -1
RETENTIONTIME: 6.988825
RETENTIONINDEX:	1275
PRECURSORMZ: 137.08356
PRECURSORTYPE: [M]+.
IONMODE: Positive
SPECTRUMTYPE: Centroid
FORMULA: C8H11NO
INCHIKEY: WXWCDTXEKCVRRO-UHFFFAOYSA-N
INCHI: 
SMILES: CC1=CC(=C(C=C1)OC)N
AUTHORS: Wang et al, MTM Research Centre, Orebro University, Sweden
COLLISIONENERGY: 70
INSTRUMENT: Q Exactive GC Orbitrap GC-MS/MS
INSTRUMENTTYPE: GC-EI-Orbitrap
IONIZATION: 
LICENSE: CC BY-NC
COMMENT: 
Num Peaks: 39
62.01514	1743630
63.02296	4747079
65.03862	16774091
66.04645	18717086
67.05427	22021854
68.04949	1243660
74.01516	2633558
75.023	2305121
76.01821	3255644
77.0386	227968880
78.04198	26938628
79.05425	17313472
80.04952	2706965
91.05428	5746412
92.04954	6727895
93.0574	80503816	"Theoretical m/z 93.057297, Mass diff 0 (1.1 ppm), SMILES NC=1C=CC=CC1, Annotation [C6H7N]+, Rule of HR False"
94.04146	4950136	"Theoretical m/z 94.041313, Mass diff 0 (1.56 ppm), SMILES [OH+]C1=CC=CC=C1, Annotation [C6H6O-H]+, Rule of HR True"
94.06516	576752448
95.06847	34370904
104.04953	10899419	"Theoretical m/z 104.050024, Mass diff 0 (0 ppm), Formula C7H6N"
105.0448	12008985
106.06521	14636306	"Theoretical m/z 106.065128, Mass diff 0 (0.77 ppm), SMILES NC1=CC=CC(=C1)C, Annotation [C7H9N-H]+, Rule of HR True"
108.08085	4306178	"Theoretical m/z 108.080772, Mass diff 0 (0.72 ppm), SMILES C[N+]1=C(C=C)C=CC1, Annotation [C7H10N]+, Rule of HR True"
118.06514	3941478	"Theoretical m/z 118.065674, Mass diff 0 (0 ppm), Formula C8H8N"
119.07293	1083737	"Theoretical m/z 119.073499, Mass diff 0 (0 ppm), Formula C8H9N"
120.04445	2619233	"Theoretical m/z 120.044939, Mass diff 0 (0 ppm), Formula C7H6NO"
121.05238	20697122	"Theoretical m/z 121.052214, Mass diff 0 (1.37 ppm), SMILES O(C=1C=CC=CC1N)C, Annotation [C7H9NO-2H]+, Rule of HR False"
122.01061	1477317
122.06007	992981312	"Theoretical m/z 122.060039, Mass diff 0 (0.25 ppm), SMILES O(C=1C=CC=CC1N)C, Annotation [C7H9NO-H]+, Rule of HR True"
122.1109	1709754
123.06337	73623776
134.06014	3317966	"Theoretical m/z 134.060589, Mass diff 0 (0 ppm), Formula C8H8NO"
136.07588	3694662	"Theoretical m/z 136.076239, Mass diff 0 (0 ppm), Formula C8H10NO"
137.02458	1039457
137.05548	3929069
137.08356	766439680	"Theoretical m/z 137.083512, Mass diff 0 (0.35 ppm), SMILES O(C1=CC=C(C=C1N)C)C, Annotation [C8H11NO]+, Rule of HR False"
137.09161	6221704
138.08687	58145224
139.09045	1465360
