NAME: CI Pigment yellow 151
SCANNUMBER: -1
RETENTIONTIME: 1
RETENTIONINDEX:	1100
PRECURSORMZ: 
PRECURSORTYPE: [M]+.
IONMODE: Positive
SPECTRUMTYPE: Centroid
FORMULA: 
INCHIKEY: 
INCHI: 
SMILES: 
AUTHORS: Wang et al, MTM Research Centre, Orebro University, Sweden
COLLISIONENERGY: 70
INSTRUMENT: Q Exactive GC Orbitrap GC-MS/MS
INSTRUMENTTYPE: GC-EI-Orbitrap
IONIZATION: 
LICENSE: CC BY-NC
COMMENT: 
Num Peaks: 438
27.023475	2.35
28.018724	9.37
29.002739	5.07
29.022078	0.1
40.018724	0.12
42.010564	14.66
42.021798	1.07
43.013918	0.32
43.018389	1000
44.021743	21.36
44.022606	0.35
44.024665	0.25
44.997653	59.39
45.022634	1.8
46.001007	0.67
46.025988	0.12
47.001898	0.24
51.023475	1.69
52.018724	18.69
52.0313	3.78
53.002739	4
53.022078	0.6
53.026549	0.3
53.034654	0.16
53.997988	1.66
54.006093	0.13
55.005813	4.44
56.009167	0.1
56.026214	0.1
57.034039	0.9
64.018724	8.43
65.002739	2.65
65.022078	0.36
65.026549	9.14
66.006093	0.12
66.010564	3.23
66.021798	0.11
66.029903	0.39
67.005813	3.04
67.013918	0.14
67.029623	8.2
68.009167	0.1
68.013638	4.69
68.026214	0.41
68.032977	0.26
68.997653	1.17
69.008887	2.02
69.016992	0.15
70.029288	0.87
71.037113	1.68
75.023475	3.63
76.026829	0.23
76.0313	8.69
77.002739	0.85
77.026549	1.26
77.034654	0.55
77.039125	4.26
78.010564	5.07
78.021798	4.67
78.034374	4.15
78.042479	0.27
79.013918	0.27
79.025152	0.2
79.029623	14.15
79.037728	0.22
79.042199	4.22
80.026657	0.11
80.032977	0.6
80.037448	6.54
80.045553	0.22
81.040802	0.28
83.013303	4.67
83.024537	0.57
84.016657	0.2
84.021128	0.22
84.032362	1.72
85.028953	6
85.040187	0.5
86.032307	0.25
88.018724	14.54
89.022078	0.94
89.026549	4.72
90.021798	2.94
90.029903	0.3
90.034374	107.85
91.025152	0.16
91.029623	0.56
91.031408	0.42
91.037728	6.86
91.042199	30.41
91.054775	4.25
92.037448	3.2
92.039233	0.1
92.041082	0.17
92.045553	1.95
92.050024	4.28
92.058129	0.32
93.021463	4.29
93.040802	0.17
93.053378	0.28
93.057849	3.33
94.016712	4.45
94.024817	0.23
94.061203	0.22
95.013303	2
95.020066	0.19
95.024537	6.45
96.016657	0.11
96.027891	0.28
97.003801	1.4
97.016377	0.63
103.029623	13.55
103.042199	3.77
104.013638	0.78
104.026214	2.43
104.026657	0.1
104.032977	0.86
104.037448	42.79
104.045553	0.28
105.021463	3
105.029568	0.18
105.034482	0.31
105.040802	2.72
105.045273	40.52
106.016712	3.06
106.024817	0.19
106.029288	6.99
106.042307	0.29
106.048627	2.6
106.053098	2.08
107.020066	0.16
107.024537	10.3
107.032642	0.45
107.056452	0.14
108.027891	0.55
109.028953	0.66
109.052763	4.23
110.000392	2.75
110.056117	0.28
111.003746	0.15
115.029623	5.31
116.013638	3.71
116.032977	0.39
116.037448	5.12
117.008887	2.72
117.016992	0.28
117.021463	3.76
117.040802	0.39
117.045273	9.96
118.012241	0.18
118.024817	0.28
118.029288	5.57
118.048627	0.75
118.053098	26.93
119.013303	3.63
119.032642	0.42
119.050132	0.2
119.056452	2.07
119.060923	8.07
120.016657	0.27
120.019786	1.09
120.032362	4.23
120.056172	1.71
120.064277	0.61
121.003801	3.2
121.028953	49.12
121.035716	0.27
121.040187	6.64
121.059526	0.11
122.007155	0.17
122.032307	3.7
122.036778	6.77
122.043541	0.43
123.033198	0.18
123.035661	0.11
123.040132	0.52
128.037448	4.2
129.040802	0.36
131.024537	9.96
131.037113	0.18
131.060923	3.78
132.027891	0.74
132.032362	21.16
132.064277	0.33
133.029396	0.15
133.035716	1.6
133.040187	373.43
133.065339	4.17
134.024202	4.58
134.037221	2.8
134.043541	28.21
134.044404	0.13
134.046463	0.16
134.048012	21.38
134.068693	0.41
135.027556	0.35
135.032027	30.74
135.040575	0.17
135.044432	0.73
135.045046	0.16
135.046895	0.81
135.051366	1.64
135.055837	5.62
136.029061	0.12
136.035381	2.32
136.039852	9.16
136.059191	0.42
137.036272	0.12
137.043206	0.7
141.045273	3.19
142.048627	0.31
143.037113	3.55
144.032362	14.35
144.040467	0.34
145.029396	0.11
145.035716	1.24
145.040187	37.48
146.037221	0.28
146.043541	3.26
146.048012	18.26
147.043261	9.58
147.045046	0.13
147.046895	0.11
147.051366	1.59
148.027276	3.11
148.040295	0.11
148.046615	0.72
148.051086	159.12
149.03063	0.23
149.035101	178.14
149.04812	1.68
149.05444	12.23
149.058911	6.12
150.032135	1.33
150.038455	13.44
150.039318	0.15
150.042926	0.46
150.051474	0.11
150.055331	0.36
150.057794	0.32
150.062265	0.46
151.039346	0.63
151.041809	0.39
155.045665	2.61
156.049019	0.17
159.043261	4.48
160.046615	0.39
160.051086	3.75
160.063662	0.35
161.035101	9.54
161.05444	0.33
161.071487	11.33
162.038455	0.83
162.042926	55.07
162.074841	1.11
162.079312	8.29
163.03996	0.38
163.04628	4.79
163.050751	64.52
163.082666	0.81
164.046	1.47
164.047171	0.22
164.047785	0.46
164.049634	0.16
164.054105	5.6
165.049354	0.11
165.054996	0.25
165.057459	0.19
169.027611	4.14
170.030965	0.4
172.027276	5.87
173.022525	4.06
173.03063	0.58
173.046335	3.48
174.025879	0.35
174.03035	23.06
174.049689	0.3
175.027384	0.26
175.033704	2
175.038175	79.4
175.050751	4
176.035209	0.84
176.041529	6.93
176.046	293.92
176.054105	0.39
176.057234	3.8
176.058576	2.24
177.04242	0.32
177.043034	3.2
177.044883	0.23
177.049354	25.62
177.050217	0.21
177.052276	0.14
177.053825	8.96
177.060588	0.29
177.06193	0.22
177.066401	4.13
178.046388	0.24
178.050245	1.12
178.052708	0.84
178.057179	0.78
178.069755	0.4
184.051086	4.09
185.05444	0.45
186.042926	2.91
187.038175	1.34
187.04628	0.32
187.050751	0.3
188.041529	0.13
188.046	5.95
188.058576	4.04
189.030015	38.56
189.049354	0.59
189.053825	6.32
189.06193	0.44
190.027049	0.27
190.033369	3.76
190.03784	43.87
190.057179	0.62
190.06165	0.14
191.03426	0.24
191.034874	0.32
191.036723	0.15
191.041194	4.31
191.045665	0.44
191.069475	0.35
192.042085	0.24
192.044548	0.16
201.041249	4.3
201.053825	1.36
202.044603	0.42
202.049074	8.24
202.057179	0.15
203.045665	7.5
203.046108	0.11
203.052428	0.81
203.056899	0.1
204.049019	0.82
204.05349	22.12
204.0773	4.06
205.048739	1.61
205.050524	0.16
205.056844	2.39
205.061315	61.31
205.080654	0.44
206.052093	0.16
206.057735	0.13
206.058349	0.44
206.060198	0.11
206.064669	6.68
206.06914	225.05
207.06556	0.4
207.066174	1.6
207.068023	0.3
207.072494	24.53
207.073357	0.23
207.075416	0.27
208.069528	0.12
208.073385	1.49
208.075848	1.07
209.076739	0.16
214.03784	0.5
217.048739	4.21
217.059973	1.38
217.072549	4.06
218.052093	0.46
218.056564	0.58
218.063327	0.13
218.06914	0.2
218.075903	0.44
219.064389	4.36
220.067743	0.48
221.058911	3.55
222.062265	0.5
224.057234	2.67
225.060588	0.32
229.059973	0.29
230.056564	1.98
231.059918	0.24
231.064389	0.86
231.088199	4.02
232.048404	0.16
232.067743	0.1
232.072214	16.45
232.091553	0.48
233.056229	2.47
233.069248	0.19
233.075568	1.97
234.059583	0.3
234.076459	0.1
234.078922	0.1
246.075288	0.56
247.059303	0.64
249.077635	1.2
250.080989	0.18
291.075623	10.15
292.072657	0.18
292.078977	1.68
293.082331	0.11
293.091273	11.32
294.088307	0.2
294.094627	1.86
294.099098	11.01
295.096132	0.2
295.097981	0.13
295.102452	1.8
296.078362	3.8
296.105806	0.13
297.081716	0.59
311.078027	0.22
336.073276	0.36
337.081101	3.8
338.084455	0.66
338.088926	231.17
339.08596	4.18
339.09228	40.5
339.093143	0.31
339.095202	0.3
339.096751	15.08
340.089314	0.7
340.093171	1.84
340.093785	0.27
340.095634	3.15
340.100105	2.64
341.096525	0.25
341.098988	0.16
341.100996	0.13
341.103459	0.21
381.107315	191.39
382.104349	3.42
382.110669	37.63
382.111532	0.34
382.113591	0.32
383.107703	0.58
383.11156	2.02
383.114023	3.48
384.114914	0.3
384.117377	0.16

