NAME: 1,2-Bis(2,4,6-tribromophenoxy)ethane
SCANNUMBER: -1
RETENTIONTIME: 40.05537
RETENTIONINDEX:	3337
PRECURSORMZ: 685.56006
PRECURSORTYPE: [M]+.
IONMODE: Positive
SPECTRUMTYPE: Centroid
FORMULA: C14H8Br6O2
INCHIKEY: YATIGPZCMOYEGE-UHFFFAOYSA-N
INCHI: 
SMILES: C1=C(C=C(C(=C1Br)OCCOC2=C(C=C(C=C2Br)Br)Br)Br)Br
AUTHORS: Wang et al. MTM Research Centre, Orebro University
COLLISIONENERGY: 70
INSTRUMENT: Q Exactive GC Orbitrap GC-MS/MS
INSTRUMENTTYPE: GC-EI-FT
IONIZATION: 
LICENSE: CC BY
COMMENT: 
Num Peaks: 281
55.05424	7998
55.71338	8702
57.06992	3319
58.46136	9018
61.00725	102534
62.0151	380139
62.46444	22269
62.96384	17120
63.0229	315437
63.46336	12164
64.02627	30169
65.03857	11910
67.05419	6445
68.96828	9731
69.06982	2865
69.46767	19351
70.07772	4967
73.04678	60873
74.01505	455636
74.69114	2737
75.0229	136046
75.1906	23930
75.69003	21986
76.03069	21417
76.1896	3416
77.03851	19472
78.91776	124374
79.05419	7222
79.92556	147784
80.91572	131415
81.06984	20030
81.92355	144158
82.18928	13446
82.44126	14854
82.69009	10246
82.9408	13340
84.96779	7833
86.01508	18462
87.02286	22926
88.03075	45851
88.69755	15155
89.03853	463315
89.1969	44497
89.69643	43655
90.04639	260016
90.19601	16189
90.91776	13520
91.05419	163062
92.062	60952
92.91569	12391
94.93128	2897
96.0041	10923
96.99384	2749
98.03619	4016
99.04401	3427
102.04634	4517
102.96656	6779
103.92549	10258
104.062	11543
105.0698	3351
105.92358	14463
106.91264	26306
107.08548	6337
108.91063	24439
109.10115	4358
110.92454	11637
111.46765	3635
114.91772	23480
115.00292	2440
115.92557	112680
116.0619	13308
116.93339	172012
117.06979	23984
117.92354	112077
118.04125	702358
118.93134	137799
119.04465	90058
120.05697	11358	"Theoretical m/z 120.057515, Mass diff 0 (0 ppm), Formula C8H8O"
123.92306	3093
124.03067	12028
124.92209	4422
125.92107	4871
127.92559	47301
128.06201	6863	"Theoretical m/z 128.0626, Mass diff 0 (0 ppm), Formula C10H8"
128.93343	23651	"Theoretical m/z 128.933987, Mass diff 0 (0 ppm), Formula C4H2Br"
129.06981	6961	"Theoretical m/z 129.070425, Mass diff 0 (0 ppm), Formula C10H9"
129.92346	47779
130.0777	2535
130.93129	50484
132.91057	27679
133.0135	23984
137.04173	5453
138.9178	16570	"Theoretical m/z 138.918337, Mass diff 0 (0 ppm), Formula C5Br"
139.92557	114820
140.93338	1749226	"Theoretical m/z 140.933987, Mass diff 0 (0 ppm), Formula C5H2Br"
141.06982	3028	"Theoretical m/z 141.070425, Mass diff 0 (0 ppm), Formula C11H9"
141.92351	276170
142.93132	1891558
143.93468	163451
144.94693	175078
145.03972	26383
145.95032	7981
146.93828	7488
147.06545	4003
150.04633	4256
151.92549	88378
152.0619	10655
152.9333	455528	"Theoretical m/z 152.933987, Mass diff 0 (0 ppm), Formula C6H2Br"
153.92348	205684
154.93123	485373
155.08543	2666
155.93907	117088
156.9281	32151
157.95465	34166
158.92607	21837
159.93396	22874
160.954	14498
162.96962	9950
163.39139	3161
164.88503	2546
165.06969	3018	"Theoretical m/z 165.070425, Mass diff 0 (0 ppm), Formula C13H9"
166.94888	80220	"Theoretical m/z 166.949637, Mass diff 0 (0 ppm), Formula C7H4Br"
167.08546	3084
167.95664	67158
168.96455	418179	"Theoretical m/z 168.965287, Mass diff 0 (0 ppm), Formula C7H6Br"
169.936	357194
170.84375	63746	"Theoretical m/z 170.844499, Mass diff 0 (0 ppm), Formula CHBr2"
170.96251	369235
171.83359	3336
171.93394	313379
172.84174	132083
172.9419	43258
173.94966	48232
174.83963	60131	"Theoretical m/z 174.839414, Mass diff -0.001 (0 ppm), Formula HBr2O"
176.98526	17516
178.39665	5390
178.9646	5131
179.39563	7052
179.95665	3519
182.94377	38325	"Theoretical m/z 182.944552, Mass diff 0 (0 ppm), Formula C7H4BrO"
184.94177	46141
191.00082	48469
192.0002	10798
192.98032	24284
193.01662	11074
194.84372	175586	"Theoretical m/z 194.844499, Mass diff 0 (0 ppm), Formula C3HBr2"
195.83404	19433
195.95166	646969
196.84169	360699
196.95947	295209	"Theoretical m/z 196.960202, Mass diff 0 (0 ppm), Formula C8H6BrO"
197.84503	14571
197.94958	750575
198.83966	169092	"Theoretical m/z 198.839414, Mass diff -0.001 (0 ppm), Formula C2HBr2O"
198.95741	311526
199.843	4803
199.96529	109154
200.94782	31048
207.03217	336250
207.85146	4550
208.03125	74463
209.84967	5781
211.0083	4712
214.94888	11681	"Theoretical m/z 214.949637, Mass diff 0 (0 ppm), Formula C11H4Br"
216.94702	12800
217.10069	2594
218.84366	44194	"Theoretical m/z 218.844499, Mass diff 0 (0 ppm), Formula C5HBr2"
219.85162	228021
220.85947	364624	"Theoretical m/z 220.860149, Mass diff 0 (0 ppm), Formula C5H3Br2"
221.84958	428277
222.85739	588126
223.84749	229835
224.85536	259335	"Theoretical m/z 224.855064, Mass diff -0.001 (0 ppm), Formula C4H3Br2O"
225.85892	13136
230.84381	24505	"Theoretical m/z 230.843942, Mass diff 0 (0.57 ppm), SMILES BrC1=CC=CC(Br)=C1, Annotation [C6H4Br2-3H]+, Rule of HR True"
231.85162	274758
232.84184	61642
233.84953	555772
234.83966	56460	"Theoretical m/z 234.839414, Mass diff -0.001 (0 ppm), Formula C5HBr2O"
235.84741	303070
236.85072	14915
237.86296	35714
239.84148	3629
245.86736	24273
246.87514	196158	"Theoretical m/z 246.875799, Mass diff 0 (0 ppm), Formula C7H5Br2"
247.84657	487766
248.87306	454272
248.98804	4138
249.86221	1455809
250.75234	4008
250.87122	325181	"Theoretical m/z 250.870161, Mass diff 0.001 (4.22 ppm), SMILES BrC1=CC=C(O)C(Br)=C1, Annotation [C6H4Br2O+H]+, Rule of HR True"
251.86011	1602060
252.8632	136577
253.85803	571970
254.86125	33428
258.97519	13345	"Theoretical m/z 258.975852, Mass diff 0 (0 ppm), Formula C13H8BrO"
259.88306	14838
260.86548	36920
260.97299	13284
261.86246	59967
262.61359	4505
262.86346	83313
263.86054	68821
264.8616	38513
265.01987	12266
265.85831	28140
274.75238	6198
274.87021	24442	"Theoretical m/z 274.870172, Mass diff 0 (0.14 ppm), SMILES BrC1=CC=C(OCC)C(Br)=C1, Annotation [C8H8Br2O-3H]+, Rule of HR True"
275.87781	629076
276.75034	5970	"Theoretical m/z 276.749926, Mass diff -0.001 (0 ppm), Formula C2Br3O"
276.8865	155466	"Theoretical m/z 276.885822, Mass diff 0.001 (2.45 ppm), SMILES BrC1=CC=C(OCC)C(Br)=C1, Annotation [C8H8Br2O-H]+, Rule of HR True"
277.87576	1193419
278.88455	235630
279.87375	569325
280.88245	96514	"Theoretical m/z 280.881279, Mass diff -0.002 (0 ppm), Formula C7H7Br2O2"
281.051	40683
281.86679	10245
282.04965	5558
283.86536	7973
286.97022	5412	"Theoretical m/z 286.970767, Mass diff 0 (0 ppm), Formula C14H8BrO2"
287.87781	19471
288.9679	6257
289.8757	41848
291.87366	21370
293.87128	2743
298.76984	461641	"Theoretical m/z 298.770661, Mass diff 0 (0 ppm), Formula C5H2Br3"
299.06165	5691
299.77332	24410
300.76782	1361451
301.77115	72145
302.76572	1316722	"Theoretical m/z 302.765576, Mass diff -0.001 (0 ppm), Formula C4H2Br3O"
303.76916	69200
304.7637	407460
305.76718	22165
310.76984	16688	"Theoretical m/z 310.770099, Mass diff 0 (0.83 ppm), SMILES BrC=1C=C(Br)C=C(Br)C1, Annotation [C6H3Br3-H]+, Rule of HR True"
311.7782	10891
312.76797	42603
313.77576	28703
314.76581	43777	"Theoretical m/z 314.765576, Mass diff -0.001 (0 ppm), Formula C5H2Br3O"
315.77365	32614
316.76364	12506
323.85947	3170
324.78555	109704	"Theoretical m/z 324.786311, Mass diff 0 (0 ppm), Formula C7H4Br3"
325.78864	5654
326.78326	548253
327.7727	297877
328.76282	1050128
329.77057	815428
330.76077	836204	"Theoretical m/z 330.760491, Mass diff -0.001 (0 ppm), Formula C5H2Br3O2"
331.76843	778342
332.75858	298621
333.76648	241266
334.77451	25373
338.77576	52311
338.88333	5737
340.77371	144987
341.77808	10938
341.87085	6927
342.77121	149851
343.77588	12494
344.76804	41231
353.78824	62129
354.79605	816056	"Theoretical m/z 354.796314, Mass diff 0 (0.74 ppm), SMILES BrC=1C=C(Br)C(OCC)=C(Br)C1, Annotation [C8H7Br3O-H]+, Rule of HR True"
355.78628	260652
356.79401	2387546
357.79746	366883
358.7919	2303182	"Theoretical m/z 358.791791, Mass diff -0.001 (0 ppm), Formula C7H6Br3O2"
359.79529	252785
360.78976	743152
361.7933	60290
365.88751	8222
367.88571	21051
369.88464	7873
374.7832	5289
376.7814	4574	"Theoretical m/z 376.781226, Mass diff -0.001 (0 ppm), Formula C10H4Br3O"
390.77862	5712
392.77695	7926	"Theoretical m/z 392.776141, Mass diff -0.001 (0 ppm), Formula C10H4Br3O2"
497.69098	3212
499.68976	6792
685.56006	15297
687.55701	19847
689.55621	12266

