NAME: Diflufenican
SCANNUMBER: -1
RETENTIONTIME: 23.92231
RETENTIONINDEX: 2385
PRECURSORMZ: 394.07342
PRECURSORTYPE: [M]+.
IONMODE: Positive
SPECTRUMTYPE: Centroid
FORMULA: C19H11F5N2O2
INCHIKEY: WYEHFWKAOXOVJD-UHFFFAOYSA-N
INCHI: 
SMILES: C1=CC(=CC(=C1)OC2=C(C=CC=N2)C(=O)NC3=C(C=C(C=C3)F)F)C(F)(F)F
AUTHORS: Wang et al. MTM Research Centre, Orebro University
COLLISIONENERGY: 70
INSTRUMENT: Q Exactive GC Orbitrap GC-MS/MS
INSTRUMENTTYPE: GC-EI-FT
IONIZATION: 
LICENSE: CC BY
COMMENT: 
Num Peaks: 157
59.51067	413107
61.5078	850569
63.02294	395830
65.02601	286780
66.03385	444299
66.50928	4519652
66.76009	595667
68.99464	267709
75.00411	1762267
75.02293	984273
76.01818	1180710
77.026	927946
78.03382	1930744
81.01351	521984
82.02134	241694
83.02914	360381
93.02092	507975
94.02877	1958080
95.01028	252825
95.02915	1508659
98.51668	295447
99.00407	553293
101.01978	5983396	"Theoretical m/z 101.020282, Mass diff 0 (0 ppm), Formula C5H3F2"
101.0597	591994
102.02304	499890
106.02879	336260	"Theoretical m/z 106.028743, Mass diff 0 (0.44 ppm), SMILES O=CC=1C=NC=CC1, Annotation [C6H5NO-H]+, Rule of HR True"
107.02918	459136	"Theoretical m/z 107.029703, Mass diff 0 (0 ppm), Formula C7H4F"
108.02441	399408
109.52431	386219
111.04409	1580794	"Theoretical m/z 111.044604, Mass diff 0 (0 ppm), Formula C6H7O2"
112.03924	326148
113.01978	284264	"Theoretical m/z 113.019733, Mass diff 0 (0.42 ppm), SMILES FC1=CC=CC(F)=C1, Annotation [C6H4F2-H]+, Rule of HR True"
113.03841	565104
114.02761	598752
114.04644	3046221
115.04975	397034
119.01035	465389	"Theoretical m/z 119.01086, Mass diff 0 (0 ppm), Formula C5H2F3"
122.0237	1500920	"Theoretical m/z 122.023655, Mass diff 0 (0.37 ppm), SMILES O=CC1=CC=CN=C1O, Annotation [C6H5NO2-H]+, Rule of HR True"
123.02302	319815	"Theoretical m/z 123.023475, Mass diff 0 (0 ppm), Formula C10H3"
123.03532	1190355	"Theoretical m/z 123.035851, Mass diff 0 (0 ppm), Formula C6H4FN2"
123.52161	244960
125.01978	3970967	"Theoretical m/z 125.019739, Mass diff 0 (0.33 ppm), SMILES FC(F)C=1C=CC=CC1, Annotation [C7H6F2-3H]+, Rule of HR True"
126.02312	464547
126.0275	864913
127.02286	644138
128.03067	2468961	"Theoretical m/z 128.030628, Mass diff 0 (0.33 ppm), SMILES FC1=CC=C(N)C(F)=C1, Annotation [C6H5F2N-H]+, Rule of HR True"
129.0146	485768	"Theoretical m/z 129.015196, Mass diff 0 (0 ppm), Formula C6H3F2O"
129.0385	1715530
129.05469	1252198
131.02902	305679
132.01822	442703
132.03709	335239
133.04483	3741268	"Theoretical m/z 133.045353, Mass diff 0 (0 ppm), Formula C9H6F"
134.04005	800416	"Theoretical m/z 134.040602, Mass diff 0 (0 ppm), Formula C8H5FN"
140.0495	6025752	"Theoretical m/z 140.050024, Mass diff 0 (0 ppm), Formula C10H6N"
141.02596	580554	"Theoretical m/z 141.02643, Mass diff 0 (0 ppm), Formula C6H3F2N2"
141.0573	4993958	"Theoretical m/z 141.057849, Mass diff 0 (0 ppm), Formula C10H7N"
142.04129	313112
142.06062	446771
143.02913	2007692	"Theoretical m/z 143.029703, Mass diff 0 (0 ppm), Formula C10H4F"
144.01817	250728
144.03265	485628
145.02596	10782793	"Theoretical m/z 145.025959, Mass diff 0 (0.01 ppm), SMILES FC(F)(F)C=1C=CC=CC1, Annotation [C7H5F3-H]+, Rule of HR True"
146.02927	834958
146.04002	246925	"Theoretical m/z 146.040602, Mass diff 0 (0 ppm), Formula C9H5FN"
150.03377	816802	"Theoretical m/z 150.034374, Mass diff 0 (0 ppm), Formula C11H4N"
151.03537	697128	"Theoretical m/z 151.035932, Mass diff 0 (0 ppm), Formula C9H5F2"
152.03064	297671	"Theoretical m/z 152.031181, Mass diff 0 (0 ppm), Formula C8H4F2N"
155.01767	270888
157.02585	452004	"Theoretical m/z 157.02651, Mass diff 0 (0 ppm), Formula C8H4F3"
158.04002	1291828	"Theoretical m/z 158.040602, Mass diff 0 (0 ppm), Formula C10H5FN"
159.04785	329773
160.05562	363187	"Theoretical m/z 160.056252, Mass diff 0 (0 ppm), Formula C10H7FN"
162.02786	646676
163.03534	2578554	"Theoretical m/z 163.035932, Mass diff 0 (0 ppm), Formula C10H5F2"
164.03064	1872502	"Theoretical m/z 164.031181, Mass diff 0 (0 ppm), Formula C9H4F2N"
164.04302	1016914
165.04477	263706	"Theoretical m/z 165.045273, Mass diff 0 (0 ppm), Formula C11H5N2"
168.04434	1603739	"Theoretical m/z 168.044397, Mass diff 0 (0.34 ppm), SMILES N=1C=CC=CC1OC=2C=CC=CC2, Annotation [C11H9NO-3H]+, Rule of HR True"
169.02577	357011	"Theoretical m/z 169.02651, Mass diff 0 (0 ppm), Formula C9H4F3"
169.05212	15219127
170.03999	3745660	"Theoretical m/z 170.040602, Mass diff 0 (0 ppm), Formula C11H5FN"
170.0555	1709500
171.04324	458481
171.04784	869103
172.03676	659447	"Theoretical m/z 172.037409, Mass diff 0 (0 ppm), Formula C8H5F3N"
172.05545	404198	"Theoretical m/z 172.056252, Mass diff 0 (0 ppm), Formula C11H7FN"
173.03197	516028	"Theoretical m/z 173.032658, Mass diff 0 (0 ppm), Formula C7H4F3N2"
173.05092	392047	"Theoretical m/z 173.051501, Mass diff 0 (0 ppm), Formula C10H6FN2"
176.03064	652748	"Theoretical m/z 176.031181, Mass diff 0 (0 ppm), Formula C10H4F2N"
177.03834	310311
178.03989	295282
181.05205	553809
182.03369	3373460
183.04153	12187603	"Theoretical m/z 183.04216, Mass diff 0 (0 ppm), Formula C10H6F3"
184.04488	1667227
187.03328	2030889
188.03068	304926	"Theoretical m/z 188.031181, Mass diff 0 (0 ppm), Formula C11H4F2N"
188.05058	1088625	"Theoretical m/z 188.051167, Mass diff 0 (0 ppm), Formula C11H7FNO"
189.03833	1911686
190.04617	11990876	"Theoretical m/z 190.046831, Mass diff 0 (0 ppm), Formula C11H6F2N"
191.03038	588979	"Theoretical m/z 191.030846, Mass diff 0 (0 ppm), Formula C11H5F2O"
191.04144	4556794	"Theoretical m/z 191.04208, Mass diff 0 (0 ppm), Formula C10H5F2N2"
191.04948	1542980
192.04465	326190
196.03886	324292	"Theoretical m/z 196.0393, Mass diff 0 (2.25 ppm), SMILES O=CC1=CC=CN=C1OC=2C=CC=CC2, Annotation [C12H9NO2-3H]+, Rule of HR True"
197.04675	338419
198.03488	1691819	"Theoretical m/z 198.035517, Mass diff 0 (0 ppm), Formula C12H5FNO"
198.04607	668252
199.03819	326590
200.05055	314762	"Theoretical m/z 200.051167, Mass diff 0 (0 ppm), Formula C12H7FNO"
203.04161	254865	"Theoretical m/z 203.04208, Mass diff 0 (0 ppm), Formula C11H5F2N2"
204.04935	620155
208.0367	650629	"Theoretical m/z 208.037409, Mass diff 0 (0 ppm), Formula C11H5F3N"
209.0448	637080
210.05244	3395380	"Theoretical m/z 210.053059, Mass diff 0 (0 ppm), Formula C11H7F3N"
211.05562	389878
214.04735	451661	"Theoretical m/z 214.047974, Mass diff 0 (0 ppm), Formula C10H7F3NO"
218.04115	27206502	"Theoretical m/z 218.041192, Mass diff 0 (0.19 ppm), SMILES FC(F)C=1C=CC=C(OC2=NC=CC=C2)C1, Annotation [C12H9F2NO-3H]+, Rule of HR True"
219.04428	3458801
232.0442	364671
233.0519	491513	"Theoretical m/z 233.052097, Mass diff 0 (0.85 ppm), SMILES O=C(NC1=CC=C(F)C=C1F)C=2C=NC=CC2, Annotation [C12H8F2N2O-H]+, Rule of HR True"
236.03175	516557	"Theoretical m/z 236.032323, Mass diff 0 (0 ppm), Formula C12H5F3NO"
237.03964	2999944
238.04739	23566794	"Theoretical m/z 238.047428, Mass diff 0 (0.16 ppm), SMILES FC(F)(F)C=1C=CC=C(OC2=NC=CC=C2)C1, Annotation [C12H8F3NO-H]+, Rule of HR True"
239.05067	3187804
245.052	1068579	"Theoretical m/z 245.052644, Mass diff 0 (0 ppm), Formula C13H7F2N2O"
246.02126	554318
246.03609	48978812	"Theoretical m/z 246.036111, Mass diff 0 (0.09 ppm), SMILES O=CC1=CC=CN=C1OC2=CC=CC(=C2)C(F)F, Annotation [C13H9F2NO2-3H]+, Rule of HR True"
246.05083	730222
247.03934	6748274
248.04298	427728
263.04282	310414	"Theoretical m/z 263.043222, Mass diff 0 (0 ppm), Formula C13H6F3N2O"
265.03415	357076
265.0582	753451	"Theoretical m/z 265.058873, Mass diff 0 (0 ppm), Formula C13H8F3N2O"
265.96274	417540
265.98328	287412
266.0253	3092323	"Theoretical m/z 266.024203, Mass diff -0.002 (0 ppm), Formula C18H4NO2"
266.04227	235990192	"Theoretical m/z 266.042347, Mass diff 0 (0.29 ppm), SMILES O=CC1=CC=CN=C1OC2=CC=CC(=C2)C(F)(F)F, Annotation [C13H8F3NO2-H]+, Rule of HR True"
266.05924	3038106	"Theoretical m/z 266.059287, Mass diff -0.001 (0 ppm), Formula C14H8F4N"
266.0643	977122
266.07355	463940
266.0932	252472
266.1261	433115
267.04562	33222566
268.04858	2356952
284.05286	2416199	"Theoretical m/z 284.05231, Mass diff -0.001 (0 ppm), Formula C16H8F2NO2"
285.05658	322604
335.06244	433646	"Theoretical m/z 335.063209, Mass diff 0 (0 ppm), Formula C19H9F2N2O2"
355.06903	423445	"Theoretical m/z 355.068902, Mass diff 0 (0.36 ppm), SMILES O=C(NC1=CC=C(F)C=C1)C2=CC=CN=C2OC3=CC=CC(=C3)C(F)F, Annotation [C19H13F3N2O2-3H]+, Rule of HR True"
374.06717	6100436
375.07391	1934718	"Theoretical m/z 375.075122, Mass diff 0.001 (3.23 ppm), SMILES O=C(NC1=CC=C(F)C=C1)C2=CC=CN=C2OC3=CC=CC(=C3)C(F)(F)F, Annotation [C19H12F4N2O2-H]+, Rule of HR True"
376.07785	305251
393.06537	256201	"Theoretical m/z 393.066244, Mass diff 0 (0 ppm), Formula C19H10F5N2O2"
394.07342	16818330	"Theoretical m/z 394.073518, Mass diff 0 (0.25 ppm), SMILES O=C(NC1=CC=C(F)C=C1F)C2=CC=CN=C2OC3=CC=CC(=C3)C(F)(F)F, Annotation [C19H11F5N2O2]+, Rule of HR False"
395.07687	3316588
396.07938	328097

