NAME: UnknownID=4|RT=4.573|RI=1081.9
SCANNUMBER: 24
RETENTIONTIME: 4.572953
RETENTIONINDEX: 1081.893
MODELION: 191.0189
MODELIONHEIGHT: 306425
MODELIONAREA: 306425
INTEGRATEDHEIGHT: 306425
INTEGRATEDAREA: 306425
COMMENT: ID:4|RT:4.572953|RI:1081.893
Num Peaks: 265
56.05758	4332
56.63707	742
56.78788	750
58.99472	6185
59.1587	803
60.02057	36727
60.0307	5151
62.0151	6115
63.96134	5055
64.0307	16137
65.03855	327188
65.10448	3276
65.91075	709
66.04639	96490
70.04128	122245
70.07768	284921
72.95599	4309
74.01508	58134
74.97177	1339
75.04369	1237
77.02282	18834
78.0049	5065
79.0669	6829
81.03346	6321
81.05725	26668
81.5268	11839
82.0732	8992
84.04436	8034
84.08883	14741
84.09332	456
86.06809	5747
86.10432	4299
86.99891	8088
88.05846	10942
89.05964	749
90.04641	11666
92.06197	218011
93.01559	2105
94.04129	6353
95.19862	793
96.03377	1656
96.05688	2041
96.08881	13801
97.02837	2159
98.03621	47875
99.02598	5357
99.11676	14066
100.0518	8186
103.05422	115367
103.9659	6436
104.02561	14304
104.04941	60627
104.9458	52124
104.98222	10761
105.98176	5860
106.0651	54611
106.53462	7432
106.96149	3633
107.04909	68265
107.07288	5203
108.05689	155633
108.07629	16010
110.03612	21992
115.00294	84296
116.02878	4474
117.09094	2906
117.98178	8958
118.03624	1648
118.05227	4056
118.96157	4778
118.99786	168668
119.04911	41429
119.06041	17119
119.07294	9028
119.96932	2097
119.99744	3537
120.9771	23233
120.9948	12351
121.02835	12030
121.04676	21799
121.06473	62123
121.07603	6006
121.08844	12775
122.03626	4659
122.09644	20566
122.9563	14516
123.02635	2530
123.08042	24233
125.1324	38097
125.9875	5137
126.04644	11116
126.10383	5333
128.08301	2979
129.03648	1559
129.09093	4318
129.56198	770
130.04436	7762
130.07759	98135
130.09422	4260
131.54242	475
132.08078	2709
132.09337	38881
132.92279	14385
133.03134	2881
133.04987	8075
133.07591	6846
133.88097	779
133.98477	20692
135.02931	7463
135.99234	71348
136.00969	1197
136.08826	70286
136.10753	7818
136.972	971
136.98962	3949
137.09608	26005
138.10408	23986
138.98758	3075
141.16374	8174
143.05244	456
143.08542	149814
144.09323	4076
145.0468	14945
145.0648	2009
145.10107	24997
146.07259	4642
146.99271	41113
147.11671	60481
148.95404	11374
149.06241	576
150.02647	17918
150.04617	7496
150.12759	2880
151.04167	13796
151.05414	10640
151.11144	3783
152.11969	11291
153.00323	135744
153.06967	95651
153.99123	1486
154.39677	960
155.00026	13990
155.14285	4669
158.09636	12566
158.10892	36584
159.08044	17626
160.07867	10834
160.12433	14136
161.00827	32477
161.09587	2449
162.01598	34551
162.04599	9476
162.09996	2914
162.98747	23014
163.69321	798
166.12997	5012
167.03383	3534
167.07274	12512
167.08531	74580
167.46422	795
168.06795	598
168.08076	22130
168.09323	40892
169.03474	5306
170.09622	14402
171.01373	11788
171.08032	21077
172.12451	15516
172.524	2848
175.02412	3085
175.05394	1769
176.06177	6248
176.15555	15088
178.0112	6156
178.98204	1238
179.01862	28428
179.10649	711
180.96129	9569
181.10101	25079
183.08043	801
183.10396	3433
183.1167	33925
183.55466	971
184.12451	5095
185.02573	985
186.09233	3728
186.14015	438
187.03264	886
187.14809	10223
189.02184	19201
190.1665	8813
191.01878	125774
191.17928	11907
192.00015	87476
192.01802	159798
192.08112	7758
192.99766	10353
193.01648	144756
194.01575	7267
195.04652	863
195.11667	7350
196.11168	7980
196.9752	2517
197.0779	4967
197.09615	14726
198.13998	12738
199.09586	5245
199.14793	2040
199.16902	2779
203.0011	22146
204.08055	18234
204.09297	9294
205.01665	597
205.03456	5123
205.10106	4064
207.11659	2180
208.12434	6801
210.08469	5257
211.14787	4553
211.20554	1609
212.1024	1995
212.98746	1334
213.05776	1159
213.06972	1884
213.16359	2182
217.08846	11630
223.14803	17737
225.16324	1571
227.08514	8354
229.00099	12278
229.10101	14089
229.19463	5823
230.09622	3757
231.11687	2686
239.08542	2266
240.94618	2793
241.10115	2767
249.98807	12360
252.09346	1407
253.05322	2258
254.09604	6293
255.06561	3541
266.01932	5913
266.20252	1119
268.06824	2000
269.11792	3937
269.99451	4905
271.34265	1052
282.0618	874
283.04727	23973
283.26343	4274
284.04755	2237
285.18463	4683
287.05914	2159
323.00738	8992
325.30987	4400
327.00263	8279
331.69156	961
343.01444	1522
379.31448	933
389.05518	921
401.98511	2001
440.90265	804
481.00708	814
525.44	903

NAME: o-Toluidine
SCANNUMBER: 31
RETENTIONTIME: 4.54535
RETENTIONINDEX: 1081.07
FORMULA: C7H9N
MODELION: 106.0652
MODELIONHEIGHT: 4446425
MODELIONAREA: 4446425
INTEGRATEDHEIGHT: 4446425
INTEGRATEDAREA: 4446425
COMMENT: ID:2|RT:4.54535|RI:1081.07
Num Peaks: 222
54.77901	1978
55.01787	12760
57.69614	1852
58.02335	6242
58.04137	4059
61.0104	2575
62.0151	6020
63.02293	16924
64.01811	7218
64.03068	3486
64.09097	1828
65.03858	40987
69.08019	1819
70.07325	2233
71.03115	3287
71.04919	1956
72.05697	6457
74.01509	9214
76.01814	3383
76.93582	1613
77.03857	239415
78.04195	35777
78.04643	88416
79.05424	269303
80.05759	30950
80.06203	20339
81.04468	2409
81.05733	8960
81.52692	7871
81.98856	5777
84.08897	9999
84.35641	1927
85.37516	1935
85.60893	1544
86.01506	3928
86.03617	2196
86.99896	1657
88.95097	8318
89.01279	3069
91.04172	7568
92.3901	1831
93.52683	2075
94.5347	4302
96.05697	5232
97.49357	5430
98.01504	1890
103.96616	4954
104.04949	63146
105.04479	46618
105.05734	14174
105.99912	5578
106.04466	14409
106.06516	1426753
107.07294	909380
108.05696	7195
108.07629	68036
110.10902	7433
110.98226	3965
113.0386	6938
113.05972	4995
114.04646	7350
114.06772	6264
115.0754	5810
116.0287	5366
117.05736	2801
118.04129	2904
119.04913	17017
120.03394	4263
120.97719	4171
121.02846	9075
121.07632	2909
121.08852	2267
124.99808	6602
125.03858	6275
126.13602	3085
127.07536	5628
130.06519	6324
130.07771	10323
131.03432	12026
131.07298	6807
131.54262	4439
132.92278	6728
134.01309	2424
134.99283	14720
135.01048	6497
135.83461	1834
135.99251	4403
137.0085	4421
137.09621	1696
138.04617	3687
139.02116	2757
139.11159	6722
140.10707	2610
140.11948	1926
141.16374	2190
143.10675	1583
144.06822	3206
145.04683	3762
145.55165	3036
146.93839	10163
147.10408	2781
147.93803	5031
148.91788	4354
148.93514	9707
148.95404	5113
149.0233	8334
149.61533	1824
150.10371	1840
150.14023	6349
150.93341	5221
151.02414	5118
153.0033	4950
153.0209	3853
154.07767	2023
154.98129	2266
156.06364	2819
156.08084	1613
156.09334	3491
157.06479	4835
158.09645	3524
158.97473	9586
160.11209	2716
161.03847	1739
161.13248	1496
161.96559	3022
164.15556	4185
164.96668	2334
166.16721	6770
172.088	2904
174.12794	1834
175.14813	13010
176.0618	2297
176.1559	15769
177.03978	5935
177.1273	3616
177.95696	2309
177.98488	3732
180.09334	3618
180.17467	1468
180.99786	6520
181.08846	4272
181.10112	1985
182.95961	2453
183.10492	2626
187.11153	4382
188.06174	6758
188.15559	8577
193.0166	3335
193.09642	1890
193.10097	7726
193.19514	4845
194.09636	5867
194.10884	4535
195.04678	6321
195.0798	4846
196.11211	2908
196.97508	2402
197.09576	6857
197.11974	3632
199.14804	3494
200.0621	8497
200.15575	7136
201.06972	3037
204.0002	5117
204.08084	3620
206.97642	6856
207.06831	2382
208.10542	8683
208.12448	8329
209.13242	7392
210.1037	3962
210.12807	2274
211.0083	3677
211.07799	4320
211.99022	1500
213.12758	4158
218.94115	1850
220.11218	6010
220.9572	3082
223.02718	11367
224.50008	2027
226.15875	3674
228.03906	5526
228.08061	9081
230.10918	7115
231.11674	2502
234.97295	1512
236.95221	2439
240.08096	1751
241.101	1882
250.07739	5553
251.17946	5158
252.96477	3062
252.98328	1765
253.05273	9613
253.08632	1444
253.15886	6845
255.06563	3165
255.10436	2659
255.21066	2128
257.2262	6715
262.668	1608
263.3009	1908
265.05527	3891
268.99594	4338
278.97394	6498
279.11639	2610
283.263	3909
285.0972	8297
287.0069	2273
319.14768	2317
327.96518	6999
329.03171	1428
339.03809	6354
341.05383	2450
343.01578	7923
367.28455	2041
416.10605	3308
491.12289	2317
527.60254	2054
535.10767	1936
589.20032	2102

NAME: Phenol, 3-methyl-
SCANNUMBER: 32
RETENTIONTIME: 4.573347
RETENTIONINDEX: 1082.491
FORMULA: C7H8O
MODELION: 107.0492
MODELIONHEIGHT: 869010.1
MODELIONAREA: 869010.1
INTEGRATEDHEIGHT: 869010.1
INTEGRATEDAREA: 869010.1
COMMENT: ID:5|RT:4.573347|RI:1082.491
Num Peaks: 382
54.03382	4363
55.99424	2693
56.05758	10205
57.51544	2961
57.52689	2110
58.99483	7843
61.0104	7892
61.49954	3113
62.0151	10183
63.02293	11909
66.04645	11357
67.04171	11915
68.9947	16410
69.0699	128764
70.04137	9695
70.07774	69656
72.05703	17512
74.01514	19879
74.03627	3177
74.05022	23278
74.93711	3140
75.0261	18451
75.86517	3402
76.03077	33532
76.25966	3029
77.00537	16939
77.02605	16625
77.0386	347960
78.042	27822
79.05425	570162
80.05762	22392
80.06206	124744
81.03354	20570
82.07327	23060
82.07773	25198
82.53468	14900
83.9993	6943
84.04443	20859
84.08888	18718
84.09338	31374
84.56047	3604
85.00732	8338
85.02845	7573
85.05224	43494
85.10121	48023
86.01513	6217
86.03627	6092
86.07284	7144
87.02301	19377
88.04748	12050
89.03861	50786
89.87768	3358
90.0465	120663
91.04162	14703
91.05427	117117
93.05741	25272
93.50176	3412
93.52679	5969
94.02874	6549
94.04134	9573
94.53468	8197
95.073	12212
95.08556	10844
96.00417	9386
96.5039	13005
96.99383	5691
97.09692	13437
98.0363	13895
98.10464	15831
98.10899	17698
98.99954	7302
99.04405	5634
100.05185	6871
101.00552	10212
101.03865	10881
103.07543	3316
104.94608	18157
104.98227	7070
105.01553	6477
105.04478	31961
105.06995	20882
106.06518	233308
107.04919	1525316
107.07299	148397
107.08556	41048
108.05701	1124212
108.08083	28936
108.09337	5886
109.06045	59780
110.0362	10471
110.10461	10809
110.10903	12894
111.04411	11977
111.1169	14767
112.01555	5741
112.08376	17518
112.0883	14130
112.12017	8784
112.12471	21457
113.03866	1563
113.08355	7682
113.09613	5904
115.55176	3112
116.04962	9712
116.0621	28223
116.38677	3494
117.01862	7194
117.03672	22021
117.06992	30516
117.25326	3336
117.99005	12169
118.07774	12600
118.99798	12054
119.07301	12389
119.08562	9792
120.08086	10609
120.09338	18218
120.97723	3602
121.02848	12170
121.04681	5333
122.03619	7734
122.10461	16638
122.10902	15195
123.08052	1606
123.96551	3374
124.08837	10165
124.12476	12203
125.01526	17479
126.10381	10956
127.07552	11065
127.14823	2967
128.02013	6980
128.06212	31947
129.03671	8144
129.05476	17536
129.06589	19865
129.06993	31350
130.99158	18181
131.03439	8511
131.04933	8582
132.05719	7512
132.09346	16463
134.0132	20042
134.07259	7174
134.99286	4975
135.01044	2684
135.08043	20138
135.09999	29532
135.10436	22383
136.08836	10116
136.98975	16455
137.04164	11059
137.13248	12484
138.13586	15175
138.14031	12215
140.04959	22368
141.06992	19912
142.07333	11674
142.07782	3163
143.08554	12656
143.10667	11059
144.05714	12506
144.09335	1538
145.04681	1861
145.10117	21697
146.10461	11956
146.10906	11565
146.93843	7615
147.08052	6887
148.05176	4414
148.11229	6962
148.12465	5459
149.02335	17036
149.04495	23469
149.13251	9600
150.04649	18564
150.10402	16144
151.0419	9125
151.05429	12462
151.11174	2486
151.14796	9852
152.15578	4601
153.0033	12351
153.06563	13584
153.091	21096
154.07333	10082
154.07773	16566
155.0603	3866
155.08548	7966
155.17953	10630
156.06389	12321
156.08075	10554
156.09337	10943
157.00719	4530
157.06479	9834
157.10121	6846
158.09631	6910
159.11682	24132
160.12474	7005
161.00842	5741
162.01646	4716
162.14031	5224
163.05432	7775
163.0937	4070
163.11169	6908
163.14801	6161
164.062	12162
164.7625	3243
164.94897	7812
164.98531	7385
165.12729	3029
165.16385	3493
166.0777	13111
167.17908	5693
168.08078	13127
169.10109	5210
170.09628	12432
170.10902	20627
171.0802	8967
171.11681	3932
171.13789	6901
172.12457	27825
173.09569	2907
173.13249	17435
173.94966	10089
174.04625	6688
174.13609	17653
175.9776	6329
176.98535	23478
177.95666	3189
178.07768	47155
179.01903	8314
179.06014	12241
179.08537	21801
180.08075	11842
180.09341	9616
180.94353	3306
181.08847	13755
182.91676	4124
183.08054	13028
184.11189	15196
184.12489	11838
185.09595	6348
185.13238	14272
185.15369	8968
186.12787	5048
187.05396	9206
189.06979	1668
189.98474	4461
190.07745	14865
190.16713	11519
191.01898	69721
191.07059	11375
191.17938	5706
192.00058	19026
192.00859	16608
192.9803	6937
193.04985	15032
193.1012	4634
193.19511	5795
193.97983	15500
194.05333	12857
194.99547	9707
195.04692	2932
195.06233	9285
195.10461	10566
198.14027	19039
199.16925	4454
200.0621	8425
200.15601	2506
201.16367	1575
202.07774	3884
203.08543	16284
204.86278	3495
205.01666	11745
205.05318	1866
206.04259	17771
206.06111	3964
206.09656	5164
206.10918	2258
207.0323	87593
207.06873	18520
209.01158	5655
209.02907	4692
209.09862	7356
209.13249	7245
210.08518	8168
210.99075	19605
211.99026	12824
212.06424	5567
213.05736	12526
213.1272	8006
213.18497	11443
215.14288	6034
215.17946	12807
217.08855	7312
217.10121	5674
219.1378	3557
219.2108	4760
220.12495	7975
221.22612	3947
222.08305	6636
222.93689	8538
223.14812	10821
225.16377	4008
226.04172	4261
226.07777	4286
227.17972	2670
229.10126	8406
229.19522	9856
230.20296	4113
231.11691	12227
232.11192	19431
232.12457	3203
233.1328	5417
237.13802	3821
237.16412	14511
239.17947	11617
240.09363	11778
240.18294	4572
241.19521	4896
247.14839	11929
248.15614	2367
250.07736	6696
250.96788	11987
251.03758	2732
251.9675	11225
253.10133	8454
253.19488	3405
255.11684	4106
255.21121	11479
261.14832	3791
262.68906	9294
263.08518	8466
265.05689	6611
265.10147	8052
266.99918	20809
267.01663	3993
267.06873	11785
267.11694	3598
267.21042	4743
268.9964	3182
270.12817	5343
271.09708	17100
277.16058	4671
278.08084	3830
279.07184	9923
281.08545	3499
281.13217	4737
282.04996	22574
284.10022	7015
285.00992	11773
286.00906	4048
295.10336	6592
299.06183	1838
310.9711	2211
313.05338	5930
324.98663	13206
325.9866	7759
326.96588	2786
326.983	7679
327.03546	11949
341.01773	17775
341.05118	9485
341.1568	15054
342.01663	4897
343.01535	1839
345.11523	8668
353.32031	7451
355.13965	15470
356.06964	8900
357.1189	2209
359.02832	6188
362.46374	3338
368.34421	5546
399.0054	7112
401.05383	10215
415.03616	14299
415.10586	7258
429.08862	8128
430.0882	4378
501.51743	3886

NAME: Decamethylcyclopentasiloxane
SCANNUMBER: 364
RETENTIONTIME: 5.328659
RETENTIONINDEX: 1133.029
MODELION: 266.9992
MODELIONHEIGHT: 3168111
MODELIONAREA: 3168111
INTEGRATEDHEIGHT: 3168111
FORMULA: C10H30O5Si5
INTEGRATEDAREA: 3168111
COMMENT: ID:60|RT:5.328659|RI:1133.029
Num Peaks: 180
56.06211	24456
58.02341	20763
59.03121	145198
65.03863	18799
71.03119	24302
73.0285	35973
73.04688	7039802
74.04643	528843
75.02615	25444
75.04373	262454
76.58458	15718
77.00535	13420
77.03864	70072
78.04205	13235
80.04958	17073
80.0577	19098
81.06996	43956
83.0856	47381
84.09344	27250
85.04682	17047
91.05433	134928
102.96669	52728
104.98236	19555
105.07001	17185
106.06528	14837
106.07778	14774
110.98236	18126
111.97204	22764
115.00309	54117
117.01876	21801
117.99005	36882
118.99802	98298
119.99762	21211
120.97728	15357
121.10129	17927
124.99802	92851
125.49789	14487
125.98781	15343
126.4873	14040
126.99566	19058
127.05441	18950
131.08566	17888
132.09355	13719
133.01372	221142
134.01323	76898
134.99289	34177
135.01059	24935
135.0625	23342
136.12486	12983
137.00858	13663
139.97618	33895
140.9837	20721
142.07344	15438
142.07776	18104
146.93849	53015
148.95421	25303
151.0242	15849
153.99176	492888
154.49136	106840
154.99007	99277
155.98912	21079
158.10908	16723
160.9543	28195
162.00754	77464
162.96977	123642
162.99696	226289
163.49649	44270
163.96948	22160
163.9955	40602
164.94916	85430
164.98538	110427
165.16383	15591
165.94832	15754
165.98474	13391
167.0855	20487
171.01262	32629
171.11678	16631
172.00235	17686
175.00603	23308
175.97752	33860
176.98547	251467
177.95692	19975
177.98511	25781
178.96475	464834
178.98233	17041
179.00107	160699
179.96426	81877
180.00063	23303
180.9614	25981
180.98018	21383
180.99777	14111
182.1093	13760
182.95972	16536
188.98543	22537
189.02196	19026
191.0011	722668
191.97258	40302
192.00047	125791
192.98036	711959
192.99768	68233
193.01672	101900
193.97978	95518
194.95972	30090
194.97719	50978
194.9959	67514
196.97527	50737
203.00108	179082
205.01675	304863
206.01637	30942
206.99585	90643
207.01381	15475
207.03242	422162
208.03151	97705
208.10561	12876
208.9207	16672
209.01166	115755
210.99095	102198
211.99049	18462
219.03226	13972
220.95746	86338
222.9366	542585
223.02719	23637
223.9362	106962
224.9335	56180
225.0065	19126
234.97292	155349
235.97212	25705
236.95219	291766
237.95108	51043
238.9492	46582
238.96782	24950
240.94728	124662
248.98871	760190
249.98758	90712
250.96796	1679636
250.98444	86716
251.00435	58082
251.96728	312439
252.96458	106761
252.98349	177716
253.9646	16913
254.96269	75514
263.00452	106285
265.00149	15247
265.02005	119649
266.91916	21221
266.99933	12754267
267.99866	2433022
268.9787	531038
268.99606	1788954
269.97784	87165
269.99466	187402
270.97568	70941
270.99329	152756
278.97415	172512
279.97391	25031
281.05121	62988
283.03073	14443
285.00989	1694651
286.00916	335350
287.00629	243925
292.96027	74004
293.96027	19800
306.97623	45110
308.99173	96515
309.99152	16016
310.98975	19200
323.00754	573133
324.00702	138571
324.987	24101
325.00403	104925
325.02209	86913
339.0387	494586
340.03879	117921
341.03522	85021
355.07013	6231816
356.07013	1867639
357.06638	1135450
358.06641	239680
359.06516	67724

NAME: UnknownID=7|RT=4.621|RI=1085.3
SCANNUMBER: 46
RETENTIONTIME: 4.621264
RETENTIONINDEX: 1085.255
MODELION: 83.03659
MODELIONHEIGHT: 84418.52
MODELIONAREA: 84418.52
INTEGRATEDHEIGHT: 84418.52
INTEGRATEDAREA: 84418.52
COMMENT: ID:7|RT:4.621264|RI:1085.255
Num Peaks: 346
54.0101	3575
54.03386	2754
54.04642	12330
55.01788	26175
56.02566	201
56.05762	23328
56.06206	4793
58.02334	9468
59.03118	5051
61.02841	12426
62.98967	2882
63.84617	94
63.96144	4107
67.04167	13844
68.02565	20954
69.03346	22488
69.05726	14435
69.06986	1898
69.76754	108
70.04133	10812
70.0777	27336
71.01272	67088
71.03104	7661
71.08102	6893
71.59646	110
72.03896	3547
72.05248	7873
72.99226	6577
73.00742	5261
73.06475	21798
74.05013	563
76.03071	24459
77.00532	3684
78.04195	1621
79.04157	7594
80.75247	97
81.06987	74065
81.28919	101
82.53464	5977
83.01276	2329
83.03656	66742
83.53623	1707
86.03618	456
86.10452	8383
86.999	3803
87.51165	1550
87.94308	3754
88.03083	8701
89.00529	2430
89.48484	95
90.30345	3530
90.52926	95
91.02097	1571
93.0573	3543
94.04133	768
95.01273	875
95.03652	44135
95.07293	182
96.00412	19150
96.03378	357
96.09331	42203
96.99379	6241
97.05223	34894
97.06479	8409
98.03616	8992
98.05997	6274
98.10448	516
99.08041	7833
99.11677	4193
100.03071	3350
101.00529	4103
101.02332	1188
101.03855	15078
101.05968	1668
103.02097	20749
103.96617	2186
104.062	6545
104.94584	3346
104.98219	6878
105.01559	1492
105.06988	38511
106.07768	10815
106.53464	5701
106.94263	5834
106.96157	3081
107.04913	10250
107.54235	3446
109.06479	62922
110.06815	576
111.03146	13181
112.07559	9831
112.08823	23476
113.05973	1750
114.04646	5243
114.0676	3912
116.00264	4240
116.05265	1000
117.01871	7323
118.03627	14078
118.5348	6050
119.01579	3048
119.04918	6055
119.54253	13972
119.99748	1094
121.63868	3763
122.03611	4666
122.07259	21432
122.10457	428
122.10895	12127
122.95634	472
122.99281	3533
124.01568	5226
124.99786	1045
125.98768	863
126.04639	16750
127.0541	6675
127.07536	3749
127.11176	12745
127.14813	1307
128.05789	96
128.06206	62689
128.08292	624
129.06988	8906
129.09097	24255
130.06519	20736
130.07765	4699
131.03433	1450
131.04924	7769
131.07309	10370
131.08556	30609
132.04454	3849
132.08089	1969
132.0934	3664
132.9229	1866
133.06482	11091
134.01317	9998
134.04962	4218
135.01032	4510
135.06245	548
135.10426	22263
135.11678	24247
136.0658	6666
136.12459	12356
136.98956	2127
137.00845	11998
137.05942	1758
138.04631	8074
138.12773	5589
138.14035	20124
138.98769	7507
139.05415	7019
139.11162	3555
139.14824	6705
140.04945	11307
140.11969	181
141.06984	20384
142.07335	10251
142.07768	23739
143.07291	16376
143.0855	32117
143.10681	1074
145.04688	9767
145.0648	2819
146.09648	2932
146.79971	112
147.06552	18674
147.08037	8698
147.93793	2285
148.11206	13567
148.12466	11723
149.06245	3038
150.02663	8574
150.04643	14338
150.13567	2151
151.05408	2079
151.14803	8406
152.08307	2723
152.15601	10659
153.12727	3050
153.16377	7768
153.69102	106
154.07329	8703
154.07767	35756
154.98154	2583
155.0603	20527
155.08546	25039
155.10672	3429
157.0648	4751
157.08858	2089
158.10898	6526
159.08018	4457
159.09952	5366
159.11665	6284
160.05179	6211
161.11996	4108
162.14014	2288
162.93323	2538
162.98772	37699
163.00272	20992
166.07323	5278
166.07762	17439
166.13066	9577
166.17163	2256
167.03381	5323
167.07284	3531
168.09337	14027
169.03479	17879
169.07574	275
169.10101	14603
169.12241	4316
170.09636	4761
172.12459	9933
173.09592	9078
174.14024	14235
175.10216	21608
176.98526	6559
177.0699	11310
179.06023	2297
180.08076	5184
180.09328	16449
180.94388	5237
180.96153	473
182.10886	6152
182.95921	9328
183.03583	8397
183.08026	4319
183.11646	10599
184.12474	10394
185.02669	7017
185.09569	9244
186.03432	4806
186.1402	5378
187.14786	13419
188.06206	1530
188.98524	271
189.06972	9065
190.17171	6095
191.00092	32813
191.08539	411
191.17946	10585
192.00047	1923
192.01822	13602
192.0887	4587
193.0873	19076
193.10091	12230
193.97957	638
194.09625	12725
194.10889	6866
195.01324	10210
195.02908	8795
199.03064	492
199.09628	8206
199.11177	1045
200.06203	3600
202.17168	13011
203.08527	1376
203.14298	5385
203.17924	9295
204.09328	8542
205.01659	2656
205.05292	5179
205.10098	11015
206.04221	4843
206.10913	6739
206.97899	2764
207.03221	13172
207.10179	4945
208.10089	7945
210.02855	5888
210.08005	3142
210.12746	9641
211.00838	3956
211.0605	2727
212.11948	137
213.16367	2626
215.08534	11836
217.08844	11157
217.10121	2207
218.09631	2065
218.10898	8086
220.112	1673
220.95734	2663
221.11987	6867
221.13236	17038
222.93622	8988
223.06377	2834
223.08101	4395
224.1559	5850
225.16392	3278
226.07754	9606
227.0222	335
227.0395	6388
227.08556	12971
228.04001	5573
228.09389	6001
229.00154	1466
232.12448	14222
234.1277	2637
234.14047	7157
234.97296	6665
236.95212	9988
237.16377	10726
238.17149	2792
239.08559	6936
240.09392	12146
241.10101	13107
241.19488	8821
241.21597	3103
242.0967	7128
243.11674	16249
247.24217	7605
249.98793	4094
251.03711	5210
252.09325	6610
252.96468	3280
253.01639	6705
255.06598	2127
265.05512	6314
265.10132	13031
266.01947	5158
267.01679	1867
267.03543	12042
267.06863	1882
267.99826	7288
268.03491	304
268.97784	793
269.24737	541
269.9953	1695
277.07758	12112
278.97443	8730
283.26318	8379
286.00955	8184
327.10394	3555
328.0351	13406
328.96258	8749
341.01785	10136
341.08801	5422
342.0174	11571
343.06656	12479
344.41721	109
347.21143	120
357.11893	10777
387.07242	9206
400.98453	5950
475.14276	5200
476.7341	137

